p cnf 132 453
-1 -2 -3 0
1 2 -3 0
-1 2 3 0
1 -2 3 0
-4 -5 -6 0
4 5 -6 0
-4 5 6 0
4 -5 6 0
-7 6 0
-7 -4 0
-6 4 7 0
11 -9 0
11 -10 0
9 10 -11 0
12 4 0
12 11 0
-4 -11 -12 0
13 12 0
13 -9 0
-12 9 -13 0
14 8 0
14 -13 0
-8 13 -14 0
-14 11 -15 0
14 -11 -15 0
-14 -11 15 0
14 11 15 0
7 15 -16 0
-7 -15 -16 0
7 -15 16 0
-7 15 16 0
3 -16 -17 0
-3 16 -17 0
3 16 17 0
-3 -16 17 0
18 -8 0
18 -10 0
8 10 -18 0
19 -18 0
19 -12 0
18 12 -19 0
20 -2 0
20 5 0
2 -5 -20 0
20 9 -21 0
-20 -9 -21 0
20 -9 21 0
-20 9 21 0
-24 -23 0
-24 -8 0
23 8 24 0
22 24 -25 0
-22 -24 -25 0
22 -24 25 0
-22 24 25 0
-21 -25 -26 0
21 25 -26 0
-21 25 26 0
21 -25 26 0
19 -26 -27 0
-19 26 -27 0
19 26 27 0
-19 -26 27 0
-28 17 0
-28 -27 0
-17 27 28 0
-30 -29 0
-30 12 0
29 -12 30 0
-31 29 0
-31 22 0
-29 -22 31 0
-32 -21 -33 0
32 21 -33 0
-32 21 33 0
32 -21 33 0
-31 -33 -34 0
31 33 -34 0
-31 33 34 0
31 -33 34 0
30 -34 -35 0
-30 34 -35 0
30 34 35 0
-30 -34 35 0
-9 -1 -36 0
9 1 -36 0
-9 1 36 0
9 -1 36 0
37 36 0
37 -20 0
-36 20 -37 0
39 37 0
39 38 0
-37 -38 -39 0
-41 -8 0
-41 40 0
8 -40 41 0
-42 -32 0
-42 -41 0
32 41 42 0
-43 6 0
-43 42 0
-6 -42 43 0
44 39 0
44 43 0
-39 -43 -44 0
-8 -38 -45 0
8 38 -45 0
-8 38 45 0
8 -38 45 0
46 -12 0
46 -11 0
12 11 -46 0
-47 -46 0
-47 40 0
46 -40 47 0
48 -45 0
48 47 0
45 -47 -48 0
49 48 0
49 32 0
-48 -32 -49 0
-44 49 -50 0
44 -49 -50 0
-44 -49 50 0
44 49 50 0
-2 -51 -52 0
2 51 -52 0
-2 51 52 0
2 -51 52 0
-53 -5 0
-53 -32 0
5 32 53 0
-54 6 0
-54 8 0
-6 -8 54 0
-55 53 0
-55 54 0
-53 -54 55 0
-56 52 0
-56 55 0
-52 -55 56 0
-57 -20 0
-57 51 0
20 -51 57 0
58 -29 0
58 38 0
29 -38 -58 0
57 -58 -59 0
-57 58 -59 0
57 58 59 0
-57 -58 59 0
-60 -56 0
-60 -59 0
56 59 60 0
61 -60 0
61 25 0
60 -25 -61 0
-62 -50 0
-62 -61 0
50 61 62 0
63 55 0
63 -31 0
-55 31 -63 0
-64 13 0
-64 -63 0
-13 63 64 0
-58 -22 -65 0
58 22 -65 0
-58 22 65 0
58 -22 65 0
-65 5 -66 0
65 -5 -66 0
-65 -5 66 0
65 5 66 0
-67 66 0
-67 59 0
-66 -59 67 0
68 -67 0
68 -8 0
67 8 -68 0
-64 -68 -69 0
64 68 -69 0
-64 68 69 0
64 -68 69 0
45 -53 -70 0
-45 53 -70 0
45 53 70 0
-45 -53 70 0
-59 -10 -71 0
59 10 -71 0
-59 10 71 0
59 -10 71 0
72 -70 0
72 -71 0
70 71 -72 0
73 -69 0
73 -72 0
69 72 -73 0
-74 -62 0
-74 73 0
62 -73 74 0
-35 74 -75 0
35 -74 -75 0
-35 -74 75 0
35 74 75 0
76 -28 0
76 -75 0
28 75 -76 0
-38 58 -77 0
38 -58 -77 0
-38 -58 77 0
38 58 77 0
78 -21 0
78 -1 0
21 1 -78 0
79 78 0
79 23 0
-78 -23 -79 0
-57 -41 -80 0
57 41 -80 0
-57 41 80 0
57 -41 80 0
-79 -80 -81 0
79 80 -81 0
-79 80 81 0
79 -80 81 0
82 -18 0
82 24 0
18 -24 -82 0
83 -63 0
83 82 0
63 -82 -83 0
84 38 0
84 -32 0
-38 32 -84 0
85 83 0
85 -84 0
-83 84 -85 0
-21 19 -86 0
21 -19 -86 0
-21 -19 86 0
21 19 86 0
-86 13 -87 0
86 -13 -87 0
-86 -13 87 0
86 13 87 0
-55 87 -88 0
55 -87 -88 0
-55 -87 88 0
55 87 88 0
45 -41 -89 0
-45 41 -89 0
45 41 89 0
-45 -41 89 0
90 -12 0
90 -89 0
12 89 -90 0
-22 90 -91 0
22 -90 -91 0
-22 -90 91 0
22 90 91 0
-88 -91 -92 0
88 91 -92 0
-88 91 92 0
88 -91 92 0
-93 -14 0
-93 -20 0
14 20 93 0
-94 92 0
-94 93 0
-92 -93 94 0
-4 -82 -95 0
4 82 -95 0
-4 82 95 0
4 -82 95 0
51 -95 -96 0
-51 95 -96 0
51 95 96 0
-51 -95 96 0
-97 -94 0
-97 96 0
94 -96 97 0
-98 85 0
-98 -97 0
-85 97 98 0
99 -81 0
99 -98 0
81 98 -99 0
40 82 -100 0
-40 -82 -100 0
40 -82 100 0
-40 82 100 0
-101 -60 0
-101 -52 0
60 52 101 0
102 45 0
102 82 0
-45 -82 -102 0
-102 -9 -103 0
102 9 -103 0
-102 9 103 0
102 -9 103 0
-101 103 -104 0
101 -103 -104 0
-101 -103 104 0
101 103 104 0
104 -7 -105 0
-104 7 -105 0
104 7 105 0
-104 -7 105 0
-107 -106 0
-107 -54 0
106 54 107 0
-108 6 0
-108 -41 0
-6 41 108 0
109 -107 0
109 108 0
107 -108 -109 0
-105 -109 -110 0
105 109 -110 0
-105 109 110 0
105 -109 110 0
-111 100 0
-111 -110 0
-100 110 111 0
112 38 0
112 102 0
-38 -102 -112 0
-112 88 -113 0
112 -88 -113 0
-112 -88 113 0
112 88 113 0
-114 -13 0
-114 -113 0
13 113 114 0
-115 -78 0
-115 106 0
78 -106 115 0
116 41 0
116 115 0
-41 -115 -116 0
118 -117 0
118 102 0
117 -102 -118 0
116 118 -119 0
-116 -118 -119 0
116 -118 119 0
-116 118 119 0
114 119 -120 0
-114 -119 -120 0
114 -119 120 0
-114 119 120 0
-121 -51 0
-121 -24 0
51 24 121 0
-122 -121 0
-122 26 0
121 -26 122 0
-120 122 -123 0
120 -122 -123 0
-120 -122 123 0
120 122 123 0
124 -111 0
124 -123 0
111 123 -124 0
125 -99 0
125 124 0
99 -124 -125 0
126 -48 0
126 -13 0
48 13 -126 0
127 -32 0
127 4 0
32 -4 -127 0
128 127 0
128 -65 0
-127 65 -128 0
-129 126 0
-129 128 0
-126 -128 129 0
125 129 -130 0
-125 -129 -130 0
125 -129 130 0
-125 129 130 0
-77 -130 -131 0
77 130 -131 0
-77 130 131 0
77 -130 131 0
-132 76 0
-132 -131 0
-76 131 132 0
-33 116 81 70 0
6 129 16 0
-90 -28 -49 -70 0
-76 94 -88 50 115 0
36 92 9 122 -97 0
-27 -6 -5 -61 0
114 -100 -7 -70 129 -107 0
45 -46 -126 107 0
58 125 -107 -76 0
62 46 0
-119 -52 -127 -3 -35 0
64 -76 109 -28 103 92 0
-85 -33 119 100 42 13 0
75 -34 46 72 40 -121 0
33 49 81 0
-11 88 7 99 113 0
-45 -52 0
57 118 -106 -95 -102 0
57 -42 129 -106 120 -47 0
35 109 41 0
-18 -123 7 41 79 0
29 -82 -62 127 23 99 0
-17 121 0
-34 -87 -14 104 0
91 130 -124 44 0
-99 -44 -76 -24 0
123 -71 63 69 31 0
-91 -9 0
-57 -108 82 96 -74 0
112 99 -38 -87 -88 0
-11 -24 -102 -20 -109 0
111 99 0
85 -24 126 99 0
34 28 -38 7 -94 -126 0
75 -1 125 -71 -63 0
-115 120 -125 -32 91 0
41 15 48 -62 0
-87 -41 -8 -61 -90 0
102 45 0
-30 -19 56 0
122 -47 2 111 0
-106 95 -82 74 -20 -112 0
-37 -32 -12 0
21 -47 -86 0
-130 117 107 64 109 0
-69 -101 108 -39 0
110 -68 0
64 90 127 -98 0
104 36 121 0
-79 77 6 0
-36 -20 0
120 74 -124 -115 0
89 -43 4 45 0
11 47 70 -17 92 41 0
-49 87 81 102 -122 28 0
-8 -24 -56 0
-11 101 -43 16 0
-73 -110 49 -41 0
18 -116 -85 0
132 0
